\ Model pvrp
\ LP format - for model browsing. Use MPS format to capture full model detail.
Minimize
  17.86470956951876 x(0,1,0) + 17.86470956951876 x(0,1,1)
   + 14.3061292685902 x(0,2,0) + 14.3061292685902 x(0,2,1)
   + 20.86937184518091 x(0,3,0) + 20.86937184518091 x(0,3,1)
   + 53.11840924120236 x(0,4,0) + 53.11840924120236 x(0,4,1)
   + 30.6123560457166 x(0,5,0) + 30.6123560457166 x(0,5,1)
   + 21.12842957644126 x(0,6,0) + 21.12842957644126 x(0,6,1)
   + 78.91329007172205 x(0,7,0) + 78.91329007172205 x(0,7,1)
   + 54.14819517226717 x(0,8,0) + 54.14819517226717 x(0,8,1)
   + 27.67099903186786 x(0,9,0) + 27.67099903186786 x(0,9,1)
   + 20.56285249005724 x(1,2,0) + 20.56285249005724 x(1,2,1)
   + 38.42079008870474 x(1,3,0) + 38.42079008870474 x(1,3,1)
   + 39.53628417186544 x(1,4,0) + 39.53628417186544 x(1,4,1)
   + 18.9636848401165 x(1,5,0) + 18.9636848401165 x(1,5,1)
   + 38.22932528265394 x(1,6,0) + 38.22932528265394 x(1,6,1)
   + 70.16213781272617 x(1,7,0) + 70.16213781272617 x(1,7,1)
   + 64.97315130918113 x(1,8,0) + 64.97315130918113 x(1,8,1)
   + 36.9420735741312 x(1,9,0) + 36.9420735741312 x(1,9,1)
   + 24.62733025039215 x(2,3,0) + 24.62733025039215 x(2,3,1)
   + 60.04081631209237 x(2,4,0) + 60.04081631209237 x(2,4,1)
   + 38.62182179609825 x(2,5,0) + 38.62182179609825 x(2,5,1)
   + 31.47727845883083 x(2,6,0) + 31.47727845883083 x(2,6,1)
   + 66.07254295536295 x(2,7,0) + 66.07254295536295 x(2,7,1)
   + 44.45530671894448 x(2,8,0) + 44.45530671894448 x(2,8,1)
   + 41.9404968245473 x(2,9,0) + 41.9404968245473 x(2,9,1)
   + 73.15438326268003 x(3,4,0) + 73.15438326268003 x(3,4,1)
   + 50.70444774141507 x(3,5,0) + 50.70444774141507 x(3,5,1)
   + 13.47707630735898 x(3,6,0) + 13.47707630735898 x(3,6,1)
   + 88.42009010975541 x(3,7,0) + 88.42009010975541 x(3,7,1)
   + 42.15398231788356 x(3,8,0) + 42.15398231788356 x(3,8,1)
   + 34.12640415657414 x(3,9,0) + 34.12640415657414 x(3,9,1)
   + 22.52093964107229 x(4,5,0) + 22.52093964107229 x(4,5,1)
   + 67.11526899791612 x(4,6,0) + 67.11526899791612 x(4,6,1)
   + 94.05229188419133 x(4,7,0) + 94.05229188419133 x(4,7,1)
   + 104.491551590927 x(4,8,0) + 104.491551590927 x(4,8,1)
   + 52.0733575828168 x(4,9,0) + 52.0733575828168 x(4,9,1)
   + 45.54176207376072 x(5,6,0) + 45.54176207376072 x(5,6,1)
   + 84.53102795936692 x(5,7,0) + 84.53102795936692 x(5,7,1)
   + 82.91389070019724 x(5,8,0) + 82.91389070019724 x(5,8,1)
   + 34.13869681037752 x(5,9,0) + 34.13869681037752 x(5,9,1)
   + 97.47024827274447 x(6,7,0) + 97.47024827274447 x(6,7,1)
   + 55.56601385492065 x(6,8,0) + 55.56601385492065 x(6,8,1)
   + 21.73402122473099 x(6,9,0) + 21.73402122473099 x(6,9,1)
   + 74.72205755941346 x(7,8,0) + 74.72205755941346 x(7,8,1)
   + 105.4952713947116 x(7,9,0) + 105.4952713947116 x(7,9,1)
   + 75.88601531388073 x(8,9,0) + 75.88601531388073 x(8,9,1)
Subject To
 R0: x(0,1,0) + x(0,2,0) + x(0,3,0) + x(0,4,0) + x(0,5,0) + x(0,6,0)
   + x(0,7,0) + x(0,8,0) + x(0,9,0) <= 2
 R1: x(0,1,1) + x(0,2,1) + x(0,3,1) + x(0,4,1) + x(0,5,1) + x(0,6,1)
   + x(0,7,1) + x(0,8,1) + x(0,9,1) <= 2
 R2: x(0,1,0) + x(1,2,0) + x(1,3,0) + x(1,4,0) + x(1,5,0) + x(1,6,0)
   + x(1,7,0) + x(1,8,0) + x(1,9,0) - 2 y[1,0] = 0
 R3: x(0,1,1) + x(1,2,1) + x(1,3,1) + x(1,4,1) + x(1,5,1) + x(1,6,1)
   + x(1,7,1) + x(1,8,1) + x(1,9,1) - 2 y[1,1] = 0
 R4: x(0,2,0) + x(1,2,0) + x(2,3,0) + x(2,4,0) + x(2,5,0) + x(2,6,0)
   + x(2,7,0) + x(2,8,0) + x(2,9,0) - 2 y[2,0] = 0
 R5: x(0,2,1) + x(1,2,1) + x(2,3,1) + x(2,4,1) + x(2,5,1) + x(2,6,1)
   + x(2,7,1) + x(2,8,1) + x(2,9,1) - 2 y[2,1] = 0
 R6: x(0,3,0) + x(1,3,0) + x(2,3,0) + x(3,4,0) + x(3,5,0) + x(3,6,0)
   + x(3,7,0) + x(3,8,0) + x(3,9,0) - 2 y[3,0] = 0
 R7: x(0,3,1) + x(1,3,1) + x(2,3,1) + x(3,4,1) + x(3,5,1) + x(3,6,1)
   + x(3,7,1) + x(3,8,1) + x(3,9,1) - 2 y[3,1] = 0
 R8: x(0,4,0) + x(1,4,0) + x(2,4,0) + x(3,4,0) + x(4,5,0) + x(4,6,0)
   + x(4,7,0) + x(4,8,0) + x(4,9,0) - 2 y[4,0] = 0
 R9: x(0,4,1) + x(1,4,1) + x(2,4,1) + x(3,4,1) + x(4,5,1) + x(4,6,1)
   + x(4,7,1) + x(4,8,1) + x(4,9,1) - 2 y[4,1] = 0
 R10: x(0,5,0) + x(1,5,0) + x(2,5,0) + x(3,5,0) + x(4,5,0) + x(5,6,0)
   + x(5,7,0) + x(5,8,0) + x(5,9,0) - 2 y[5,0] = 0
 R11: x(0,5,1) + x(1,5,1) + x(2,5,1) + x(3,5,1) + x(4,5,1) + x(5,6,1)
   + x(5,7,1) + x(5,8,1) + x(5,9,1) - 2 y[5,1] = 0
 R12: x(0,6,0) + x(1,6,0) + x(2,6,0) + x(3,6,0) + x(4,6,0) + x(5,6,0)
   + x(6,7,0) + x(6,8,0) + x(6,9,0) - 2 y[6,0] = 0
 R13: x(0,6,1) + x(1,6,1) + x(2,6,1) + x(3,6,1) + x(4,6,1) + x(5,6,1)
   + x(6,7,1) + x(6,8,1) + x(6,9,1) - 2 y[6,1] = 0
 R14: x(0,7,0) + x(1,7,0) + x(2,7,0) + x(3,7,0) + x(4,7,0) + x(5,7,0)
   + x(6,7,0) + x(7,8,0) + x(7,9,0) - 2 y[7,0] = 0
 R15: x(0,7,1) + x(1,7,1) + x(2,7,1) + x(3,7,1) + x(4,7,1) + x(5,7,1)
   + x(6,7,1) + x(7,8,1) + x(7,9,1) - 2 y[7,1] = 0
 R16: x(0,8,0) + x(1,8,0) + x(2,8,0) + x(3,8,0) + x(4,8,0) + x(5,8,0)
   + x(6,8,0) + x(7,8,0) + x(8,9,0) - 2 y[8,0] = 0
 R17: x(0,8,1) + x(1,8,1) + x(2,8,1) + x(3,8,1) + x(4,8,1) + x(5,8,1)
   + x(6,8,1) + x(7,8,1) + x(8,9,1) - 2 y[8,1] = 0
 R18: x(0,9,0) + x(1,9,0) + x(2,9,0) + x(3,9,0) + x(4,9,0) + x(5,9,0)
   + x(6,9,0) + x(7,9,0) + x(8,9,0) - 2 y[9,0] = 0
 R19: x(0,9,1) + x(1,9,1) + x(2,9,1) + x(3,9,1) + x(4,9,1) + x(5,9,1)
   + x(6,9,1) + x(7,9,1) + x(8,9,1) - 2 y[9,1] = 0
 R20: y[1,0] + y[1,1] = 1
 R21: y[2,0] + y[2,1] = 1
 R22: y[3,0] + y[3,1] = 1
 R23: y[4,0] + y[4,1] = 1
 R24: y[5,0] + y[5,1] = 1
 R25: y[6,0] + y[6,1] = 1
 R26: y[7,0] + y[7,1] = 1
 R27: y[8,0] + y[8,1] = 1
 R28: y[9,0] + y[9,1] = 1
 R29: x(0,1,0) + x(0,2,0) + x(0,3,0) + x(0,4,0) + x(0,5,0) + x(0,6,0)
   + x(0,7,0) + x(0,8,0) + x(0,9,0) <= 2
 R30: x(0,1,1) + x(0,2,1) + x(0,3,1) + x(0,4,1) + x(0,5,1) + x(0,6,1)
   + x(0,7,1) + x(0,8,1) + x(0,9,1) <= 2
 R31: x(0,1,0) + x(1,2,0) + x(1,3,0) + x(1,4,0) + x(1,5,0) + x(1,6,0)
   + x(1,7,0) + x(1,8,0) + x(1,9,0) - 2 y[1,0] = 0
 R32: x(0,1,1) + x(1,2,1) + x(1,3,1) + x(1,4,1) + x(1,5,1) + x(1,6,1)
   + x(1,7,1) + x(1,8,1) + x(1,9,1) - 2 y[1,1] = 0
 R33: x(0,2,0) + x(1,2,0) + x(2,3,0) + x(2,4,0) + x(2,5,0) + x(2,6,0)
   + x(2,7,0) + x(2,8,0) + x(2,9,0) - 2 y[2,0] = 0
 R34: x(0,2,1) + x(1,2,1) + x(2,3,1) + x(2,4,1) + x(2,5,1) + x(2,6,1)
   + x(2,7,1) + x(2,8,1) + x(2,9,1) - 2 y[2,1] = 0
 R35: x(0,3,0) + x(1,3,0) + x(2,3,0) + x(3,4,0) + x(3,5,0) + x(3,6,0)
   + x(3,7,0) + x(3,8,0) + x(3,9,0) - 2 y[3,0] = 0
 R36: x(0,3,1) + x(1,3,1) + x(2,3,1) + x(3,4,1) + x(3,5,1) + x(3,6,1)
   + x(3,7,1) + x(3,8,1) + x(3,9,1) - 2 y[3,1] = 0
 R37: x(0,4,0) + x(1,4,0) + x(2,4,0) + x(3,4,0) + x(4,5,0) + x(4,6,0)
   + x(4,7,0) + x(4,8,0) + x(4,9,0) - 2 y[4,0] = 0
 R38: x(0,4,1) + x(1,4,1) + x(2,4,1) + x(3,4,1) + x(4,5,1) + x(4,6,1)
   + x(4,7,1) + x(4,8,1) + x(4,9,1) - 2 y[4,1] = 0
 R39: x(0,5,0) + x(1,5,0) + x(2,5,0) + x(3,5,0) + x(4,5,0) + x(5,6,0)
   + x(5,7,0) + x(5,8,0) + x(5,9,0) - 2 y[5,0] = 0
 R40: x(0,5,1) + x(1,5,1) + x(2,5,1) + x(3,5,1) + x(4,5,1) + x(5,6,1)
   + x(5,7,1) + x(5,8,1) + x(5,9,1) - 2 y[5,1] = 0
 R41: x(0,6,0) + x(1,6,0) + x(2,6,0) + x(3,6,0) + x(4,6,0) + x(5,6,0)
   + x(6,7,0) + x(6,8,0) + x(6,9,0) - 2 y[6,0] = 0
 R42: x(0,6,1) + x(1,6,1) + x(2,6,1) + x(3,6,1) + x(4,6,1) + x(5,6,1)
   + x(6,7,1) + x(6,8,1) + x(6,9,1) - 2 y[6,1] = 0
 R43: x(0,7,0) + x(1,7,0) + x(2,7,0) + x(3,7,0) + x(4,7,0) + x(5,7,0)
   + x(6,7,0) + x(7,8,0) + x(7,9,0) - 2 y[7,0] = 0
 R44: x(0,7,1) + x(1,7,1) + x(2,7,1) + x(3,7,1) + x(4,7,1) + x(5,7,1)
   + x(6,7,1) + x(7,8,1) + x(7,9,1) - 2 y[7,1] = 0
 R45: x(0,8,0) + x(1,8,0) + x(2,8,0) + x(3,8,0) + x(4,8,0) + x(5,8,0)
   + x(6,8,0) + x(7,8,0) + x(8,9,0) - 2 y[8,0] = 0
 R46: x(0,8,1) + x(1,8,1) + x(2,8,1) + x(3,8,1) + x(4,8,1) + x(5,8,1)
   + x(6,8,1) + x(7,8,1) + x(8,9,1) - 2 y[8,1] = 0
 R47: x(0,9,0) + x(1,9,0) + x(2,9,0) + x(3,9,0) + x(4,9,0) + x(5,9,0)
   + x(6,9,0) + x(7,9,0) + x(8,9,0) - 2 y[9,0] = 0
 R48: x(0,9,1) + x(1,9,1) + x(2,9,1) + x(3,9,1) + x(4,9,1) + x(5,9,1)
   + x(6,9,1) + x(7,9,1) + x(8,9,1) - 2 y[9,1] = 0
 R49: y[1,0] + y[1,1] = 1
 R50: y[2,0] + y[2,1] = 1
 R51: y[3,0] + y[3,1] = 1
 R52: y[4,0] + y[4,1] = 1
 R53: y[5,0] + y[5,1] = 1
 R54: y[6,0] + y[6,1] = 1
 R55: y[7,0] + y[7,1] = 1
 R56: y[8,0] + y[8,1] = 1
 R57: y[9,0] + y[9,1] = 1
Bounds
 x(0,1,0) <= 2
 x(0,1,1) <= 2
 x(0,2,0) <= 2
 x(0,2,1) <= 2
 x(0,3,0) <= 2
 x(0,3,1) <= 2
 x(0,4,0) <= 2
 x(0,4,1) <= 2
 x(0,5,0) <= 2
 x(0,5,1) <= 2
 x(0,6,0) <= 2
 x(0,6,1) <= 2
 x(0,7,0) <= 2
 x(0,7,1) <= 2
 x(0,8,0) <= 2
 x(0,8,1) <= 2
 x(0,9,0) <= 2
 x(0,9,1) <= 2
 x(1,2,0) <= 1
 x(1,2,1) <= 1
 x(1,3,0) <= 1
 x(1,3,1) <= 1
 x(1,4,0) <= 1
 x(1,4,1) <= 1
 x(1,5,0) <= 1
 x(1,5,1) <= 1
 x(1,6,0) <= 1
 x(1,6,1) <= 1
 x(1,7,0) <= 1
 x(1,7,1) <= 1
 x(1,8,0) <= 1
 x(1,8,1) <= 1
 x(1,9,0) <= 1
 x(1,9,1) <= 1
 x(2,3,0) <= 1
 x(2,3,1) <= 1
 x(2,4,0) <= 1
 x(2,4,1) <= 1
 x(2,5,0) <= 1
 x(2,5,1) <= 1
 x(2,6,0) <= 1
 x(2,6,1) <= 1
 x(2,7,0) <= 1
 x(2,7,1) <= 1
 x(2,8,0) <= 1
 x(2,8,1) <= 1
 x(2,9,0) <= 1
 x(2,9,1) <= 1
 x(3,4,0) <= 1
 x(3,4,1) <= 1
 x(3,5,0) <= 1
 x(3,5,1) <= 1
 x(3,6,0) <= 1
 x(3,6,1) <= 1
 x(3,7,0) <= 1
 x(3,7,1) <= 1
 x(3,8,0) <= 1
 x(3,8,1) <= 1
 x(3,9,0) <= 1
 x(3,9,1) <= 1
 x(4,5,0) <= 1
 x(4,5,1) <= 1
 x(4,6,0) <= 1
 x(4,6,1) <= 1
 x(4,7,0) <= 1
 x(4,7,1) <= 1
 x(4,8,0) <= 1
 x(4,8,1) <= 1
 x(4,9,0) <= 1
 x(4,9,1) <= 1
 x(5,6,0) <= 1
 x(5,6,1) <= 1
 x(5,7,0) <= 1
 x(5,7,1) <= 1
 x(5,8,0) <= 1
 x(5,8,1) <= 1
 x(5,9,0) <= 1
 x(5,9,1) <= 1
 x(6,7,0) <= 1
 x(6,7,1) <= 1
 x(6,8,0) <= 1
 x(6,8,1) <= 1
 x(6,9,0) <= 1
 x(6,9,1) <= 1
 x(7,8,0) <= 1
 x(7,8,1) <= 1
 x(7,9,0) <= 1
 x(7,9,1) <= 1
 x(8,9,0) <= 1
 x(8,9,1) <= 1
 x(0,1,0) <= 2
 x(0,1,1) <= 2
 x(0,2,0) <= 2
 x(0,2,1) <= 2
 x(0,3,0) <= 2
 x(0,3,1) <= 2
 x(0,4,0) <= 2
 x(0,4,1) <= 2
 x(0,5,0) <= 2
 x(0,5,1) <= 2
 x(0,6,0) <= 2
 x(0,6,1) <= 2
 x(0,7,0) <= 2
 x(0,7,1) <= 2
 x(0,8,0) <= 2
 x(0,8,1) <= 2
 x(0,9,0) <= 2
 x(0,9,1) <= 2
 x(1,2,0) <= 1
 x(1,2,1) <= 1
 x(1,3,0) <= 1
 x(1,3,1) <= 1
 x(1,4,0) <= 1
 x(1,4,1) <= 1
 x(1,5,0) <= 1
 x(1,5,1) <= 1
 x(1,6,0) <= 1
 x(1,6,1) <= 1
 x(1,7,0) <= 1
 x(1,7,1) <= 1
 x(1,8,0) <= 1
 x(1,8,1) <= 1
 x(1,9,0) <= 1
 x(1,9,1) <= 1
 x(2,3,0) <= 1
 x(2,3,1) <= 1
 x(2,4,0) <= 1
 x(2,4,1) <= 1
 x(2,5,0) <= 1
 x(2,5,1) <= 1
 x(2,6,0) <= 1
 x(2,6,1) <= 1
 x(2,7,0) <= 1
 x(2,7,1) <= 1
 x(2,8,0) <= 1
 x(2,8,1) <= 1
 x(2,9,0) <= 1
 x(2,9,1) <= 1
 x(3,4,0) <= 1
 x(3,4,1) <= 1
 x(3,5,0) <= 1
 x(3,5,1) <= 1
 x(3,6,0) <= 1
 x(3,6,1) <= 1
 x(3,7,0) <= 1
 x(3,7,1) <= 1
 x(3,8,0) <= 1
 x(3,8,1) <= 1
 x(3,9,0) <= 1
 x(3,9,1) <= 1
 x(4,5,0) <= 1
 x(4,5,1) <= 1
 x(4,6,0) <= 1
 x(4,6,1) <= 1
 x(4,7,0) <= 1
 x(4,7,1) <= 1
 x(4,8,0) <= 1
 x(4,8,1) <= 1
 x(4,9,0) <= 1
 x(4,9,1) <= 1
 x(5,6,0) <= 1
 x(5,6,1) <= 1
 x(5,7,0) <= 1
 x(5,7,1) <= 1
 x(5,8,0) <= 1
 x(5,8,1) <= 1
 x(5,9,0) <= 1
 x(5,9,1) <= 1
 x(6,7,0) <= 1
 x(6,7,1) <= 1
 x(6,8,0) <= 1
 x(6,8,1) <= 1
 x(6,9,0) <= 1
 x(6,9,1) <= 1
 x(7,8,0) <= 1
 x(7,8,1) <= 1
 x(7,9,0) <= 1
 x(7,9,1) <= 1
 x(8,9,0) <= 1
 x(8,9,1) <= 1
Binaries
 y[1,0] y[1,1] y[2,0] y[2,1] y[3,0] y[3,1] y[4,0] y[4,1] y[5,0] y[5,1]
 y[6,0] y[6,1] y[7,0] y[7,1] y[8,0] y[8,1] y[9,0] y[9,1] y[1,0] y[1,1]
 y[2,0] y[2,1] y[3,0] y[3,1] y[4,0] y[4,1] y[5,0] y[5,1] y[6,0] y[6,1]
 y[7,0] y[7,1] y[8,0] y[8,1] y[9,0] y[9,1]
Generals
 x(0,1,0) x(0,1,1) x(0,2,0) x(0,2,1) x(0,3,0) x(0,3,1) x(0,4,0) x(0,4,1)
 x(0,5,0) x(0,5,1) x(0,6,0) x(0,6,1) x(0,7,0) x(0,7,1) x(0,8,0) x(0,8,1)
 x(0,9,0) x(0,9,1) x(1,2,0) x(1,2,1) x(1,3,0) x(1,3,1) x(1,4,0) x(1,4,1)
 x(1,5,0) x(1,5,1) x(1,6,0) x(1,6,1) x(1,7,0) x(1,7,1) x(1,8,0) x(1,8,1)
 x(1,9,0) x(1,9,1) x(2,3,0) x(2,3,1) x(2,4,0) x(2,4,1) x(2,5,0) x(2,5,1)
 x(2,6,0) x(2,6,1) x(2,7,0) x(2,7,1) x(2,8,0) x(2,8,1) x(2,9,0) x(2,9,1)
 x(3,4,0) x(3,4,1) x(3,5,0) x(3,5,1) x(3,6,0) x(3,6,1) x(3,7,0) x(3,7,1)
 x(3,8,0) x(3,8,1) x(3,9,0) x(3,9,1) x(4,5,0) x(4,5,1) x(4,6,0) x(4,6,1)
 x(4,7,0) x(4,7,1) x(4,8,0) x(4,8,1) x(4,9,0) x(4,9,1) x(5,6,0) x(5,6,1)
 x(5,7,0) x(5,7,1) x(5,8,0) x(5,8,1) x(5,9,0) x(5,9,1) x(6,7,0) x(6,7,1)
 x(6,8,0) x(6,8,1) x(6,9,0) x(6,9,1) x(7,8,0) x(7,8,1) x(7,9,0) x(7,9,1)
 x(8,9,0) x(8,9,1)
Semi-continuous
 x(0,1,0) x(0,1,1) x(0,2,0) x(0,2,1) x(0,3,0) x(0,3,1) x(0,4,0) x(0,4,1)
 x(0,5,0) x(0,5,1) x(0,6,0) x(0,6,1) x(0,7,0) x(0,7,1) x(0,8,0) x(0,8,1)
 x(0,9,0) x(0,9,1) x(1,2,0) x(1,2,1) x(1,3,0) x(1,3,1) x(1,4,0) x(1,4,1)
 x(1,5,0) x(1,5,1) x(1,6,0) x(1,6,1) x(1,7,0) x(1,7,1) x(1,8,0) x(1,8,1)
 x(1,9,0) x(1,9,1) x(2,3,0) x(2,3,1) x(2,4,0) x(2,4,1) x(2,5,0) x(2,5,1)
 x(2,6,0) x(2,6,1) x(2,7,0) x(2,7,1) x(2,8,0) x(2,8,1) x(2,9,0) x(2,9,1)
 x(3,4,0) x(3,4,1) x(3,5,0) x(3,5,1) x(3,6,0) x(3,6,1) x(3,7,0) x(3,7,1)
 x(3,8,0) x(3,8,1) x(3,9,0) x(3,9,1) x(4,5,0) x(4,5,1) x(4,6,0) x(4,6,1)
 x(4,7,0) x(4,7,1) x(4,8,0) x(4,8,1) x(4,9,0) x(4,9,1) x(5,6,0) x(5,6,1)
 x(5,7,0) x(5,7,1) x(5,8,0) x(5,8,1) x(5,9,0) x(5,9,1) x(6,7,0) x(6,7,1)
 x(6,8,0) x(6,8,1) x(6,9,0) x(6,9,1) x(7,8,0) x(7,8,1) x(7,9,0) x(7,9,1)
 x(8,9,0) x(8,9,1)
End
